18 965
525 7 482 7 394 7 212 9 29 11 822 15 623 21
525 7 504 7 362 7 209 9 25 11 818 15 624 21
525 7 504 7 362 7 209 9 25 11 818 15 624 21
525 7 504 7 362 7 209 9 25 11 818 15 624 21
525 7 479 7 356 7 109 9 965 11 699 15 550 22
525 7 479 7 356 7 109 9 965 11 699 15 550 22
525 7 482 7 367 7 213 9 32 11 824 18
525 7 482 7 365 7 212 9 29 11 823 18
525 7 479 7 355 7 106 9 927 13
525 7 479 7 355 7 106 9 927 13
535 8 512 8 469 7 405 15 290 26
535 8 512 8 469 7 405 15 290 26
535 8 512 8 469 7 405 15 290 26
525 7 482 7 365 7 115 9 943 13
525 7 479 7 358 7 164 9 11 11 783 15 611 22
520 7 441 7 347 7 188 9 17 11 840 15 710 23
528 7 482 7 301 7 114 9 881 11 698 15 576 22
528 7 482 7 366 7 202 12
